
 102   30
  10   10   10   10   10   10   10   10   10   10   10   10   10   10   10   10   10   10   10   10   10   10   10   10   10   10   10   10   10   10

   0   0   0   0   0   0   0   0   0   0   0   0   0   0   0   0   0   0   0   0   0   0   0   0   0   0   0   0   0   0   0  25 2 3 4 5 6 7 8 9 10 11 12 13 14 15 16 17 18 19 20 24 25 30 35 38 39 
   9   0   0   0   0   0   0   0   1   0   0   0   0   0   0   0   0   0   1   0   0   0   0   0   0   0   0   2   0   0   0  19 73 66 60 56 54 53 51 50 47 42 40 37 34 33 31 28 26 23 22 
   6   0   0   0   0   0   0   0   0   0   0   0   0   0   1   0   0   0   0   0   0   0   0   1   0   0   0   0   0   0   0  20 80 77 72 71 70 65 59 58 57 53 52 51 47 43 42 41 40 32 31 29 
   8   0   0   0   0   0   0   0   0   0   0   0   0   0   0   0   0   0   0   0   0   0   0   0   0   0   3   0   0   0   0  16 80 73 72 66 64 60 59 54 53 50 49 47 45 41 32 21 
   4   0   0   0   0   0   0   0   0   0   0   1   0   0   0   0   0   0   0   0   0   0   0   0   0   1   0   0   0   0   0  19 98 73 72 71 66 65 61 54 53 52 50 49 48 47 46 45 42 41 29 
   1   0   0   0   0   0   0   0   0   0   0   0   0   0   0   0   3   0   0   0   0   0   0   0   0   4   0   0   0   0   0  19 101 98 80 78 77 76 73 72 71 70 65 64 61 55 53 50 48 45 28 
   9   0   0   0   0   0   1   0   0   0   0   0   0   0   0   0   0   0   0   1   1   0   0   0   0   0   0   6   0   0   0  20 101 99 98 80 79 78 75 72 71 70 66 61 57 55 52 49 48 42 41 34 
   3   0   0   0   0   0   0   0   0   0   0   0   0   1   0   0   0   0   0   0   0   0   0   0   0   0   0   5   0   0   0  15 94 72 68 66 59 56 54 52 51 50 47 45 43 36 32 
   4   0   0   0   0   0   0   0   0   0   6   0   0   0   0   0   0   0   0   0   0   0   4   6   0   0   0   0   0   0   1  15 77 73 72 71 68 65 60 59 57 56 52 51 49 37 29 
   9   0   1   0   0   0   0   0   0   0   0   0   0   0   0   0   0   2   0   6   0   2   0   0   0   0   0   0   0   0   0  15 80 78 77 73 71 70 66 64 60 58 57 52 45 37 31 
   4   0   0   0   0   0   0   0   0   0   0   0   0   0   0   0   0   0   0   0   0   0   0   0   0   0   0   0   0   0   0  17 96 80 78 73 64 61 60 59 57 56 54 52 50 46 45 44 42 
   9   0   0   0   0   0   0   0   0   0   0   0   5   0   0   0   0   0   0   0   6   0   0   0   0   0   0   0   0   1   0  16 98 78 76 72 65 64 61 59 58 57 53 52 47 46 45 42 
   1   0   0   0   0   0   0   0   0   0   0   0   0   0   0   0   0   0   0   0   0   2   0   0   0   0   0   0   0   0   0  12 80 78 73 63 58 53 49 47 42 36 34 28 
   6   0   6   1   0   0   0   0   6   0   4   0   0   0   0   0   0   0   8   0   8   0   3   0   1   0   0   0   0   0   0  13 98 77 75 73 72 71 70 59 52 44 43 40 33 
   9   0   0   0   0   1   0   0   0   0   0   0   0   0   0   0   0   4   0   0   0   0   0   0   0   0   0   0   0   0   0  21 101 98 95 94 91 80 78 77 76 75 74 73 71 69 68 65 64 63 59 54 48 
   3   0   0   0   0   0   0   1   0   0  10   9   0   0   0   0   0   0   0   0   0   0   6   0   0   3   0   0   0   0   0  18 99 97 95 94 91 78 77 76 72 71 70 65 58 57 56 55 50 45 
   7   0   6   0   2   0   0   0   0   0   0   0   0   0   0   2   0   0   0   0   0   0   0   0   0   0   0   6   2   0   0  14 98 97 95 90 79 63 61 58 55 54 53 50 49 47 
   6   0   5   0   0   0   0   0   3   0   0   0   0   0   0   0   0   0   0   0   0   0   0   7   0   0   0   0   0   0   0  10 79 77 70 68 63 61 52 48 47 27 
   1   0   0   0   0   5   8   0   0   0   0   0   0   0   0   0   0   0   4   0   0   0   0   0   0   0   4   0   0   0  10  18 101 100 95 94 91 90 77 76 74 73 71 69 68 65 64 62 53 45 
   2   1   0   0   0   0   0   0   0   0   0   6   4  10   0   0   0   0   0   0   0   0   0   0   4   0  10   0   0   5   0  14 98 92 80 78 75 70 68 67 65 63 62 52 49 42 
   8   0   0   0   0   0   7   0   0   0   0   0   0   0   0   0   0   0   0   0   0   0   0   0   9   0   0   0   0   0   0  10 99 98 79 78 76 74 69 63 42 34 
   6   6   0   0   0   0   0   0   0   0   0  10   0   0   0   5   0   0   0   0   0   0   0   0   0   0   6   0   4   0   0  15 99 98 95 92 91 89 80 79 78 77 75 63 59 49 48 
   7   0   6   0   0   0   0   0   0   0   0   0   8   0   7   0   0   0   0   8   0   0   0   5   0   0   0   0   6   0   0  15 100 98 96 95 92 89 80 78 70 67 63 62 61 49 44 
   9   0   0   0   6   0   2   0   0   0   0   0   0   0   0   0   0   0   0   3   0   0   0   0   0   0   0   0   0   0   0  18 99 98 97 96 95 94 93 91 90 78 75 74 71 68 67 64 62 55 
   4   0   0   0   5   0   8   0   0   0   0   0   0   0   0   0   3   0   0  10   0   0   0   0   0   0   0   0   0   6   0  13 98 96 94 93 90 75 73 70 69 68 64 63 48 
   4   0   0  10   5   0   0   0   9   0   5   0   0   0   0   0   0   0   0   3   0   0   0   0   0   6   0   0   0   0   0  12 99 96 95 90 75 72 71 69 64 63 58 55 
   4   0   0   6   0   0   0   0   0   0   0   0   0   0   6   0   0   0   0   0   0   8   0   0   0   0   0   0   0   0   0  15 101 99 98 97 96 95 93 91 90 89 88 87 86 75 49 
   2   0   0   0   0   0   0   0   0   1   0   0   0   0   7   0   0   0   0   8  10   0   0   0   0   0   0   0   0   0   7  12 100 99 97 94 93 92 90 86 75 68 57 52 
   3   0   6   0   0   0   0   0   0   0   0   6   0   0   0   8   0   0   0   6   0   0   0   0   0   0   0   0   0   0   0  15 101 100 96 95 94 90 87 86 83 78 75 74 64 63 62 
   6   0   0   0   0   0   0   0   0  10   0   0   0   0   0   0   0   0   0   0   0   0   6   0   0   0   0   0   0   0   0  12 99 98 94 92 91 90 87 68 63 62 59 58 
  10   7   0   0   0   0   0   0   0   0   0   0   0   0   0   3   0   0   0   0   0   0   5   0   0   0   0   0   0   6   0  17 101 99 98 97 96 94 92 91 90 89 87 86 83 76 75 74 68 
   1   0   0   0   0   0   0   0   0   5   0   0   0   0   0   0   0   0  10   0   0   0   0   6   0   0   0   0   0   0   0  14 100 96 95 93 92 90 84 76 75 74 69 67 62 61 
   1   0   0   0   0   0   9   0   0   0   0   0   0   0   0   0   0   0   0   0   0   0   0   0   0   0   0  10   7   4   0  12 100 95 92 91 90 88 87 86 68 67 62 49 
   2   0   0   5   0   3   0   0   0   7   0   0   0   0   0   0   0   0   0   7   0   0   4   0   0   0   0   0   0   5   7  13 95 94 93 92 91 89 87 86 77 68 67 65 62 
   3   0   0   0   0   0   0   0   0   0   0   7   0   5   0   8   0   0   0   7   0   4   0   0   0   5   0   0   0   0   0  11 98 97 91 90 86 75 72 67 64 63 62 
   4   0   0   0   0   0   0   0   0   7   0   0   0   0  10   0   0   0   7   0   0   0   5   0   0   0   0   0   0   6   0  14 101 99 98 95 93 89 88 87 86 83 77 75 74 62 
   3   0   0   0   0   0   0   0  10   0   7   0   0   0   0   0   0   0   0   0   0   0   4   0   0   0   0   0   0   0   0  13 100 97 96 93 91 90 88 87 86 84 83 74 62 
   2   0   7   0   0   0   0   0   0   0   0   0   0   0   8   0   0   0   0   0   0   0   0   6   0   0   0   0   0   0   0  11 100 98 91 90 86 83 81 78 77 68 64 
   1   0   0   0   0   0   0   0   0   0   0   0   0   0   0   5   0   0   0   0   0   0   0   0   0   0   0   0  10   9  10   8 98 90 86 75 74 68 65 60 
   4   0   0   6   0   0   0   7   0   0   0   0   6   0   0   5   0   0   0   0   0   0   0   0   0   0   2   0   0   0   0   9 99 94 92 91 90 83 76 63 62 
   5   9   0   0   0   0   0   0   0   6   0   0   0   0   0   0   0   0   0   0   0   0   0   0   0   0   2   0   0   0   0   8 95 92 88 87 86 83 68 62 
   3   0   0   0   0   0   0   0   0   0   0   0   0   0   0   0   0   0   0   0   0   0   0   0   4   0   0   0   0   0   0  10 100 97 93 91 90 85 84 83 82 81 
   4   0   0   0   0   0   0   0   0   0   0   0   0   0   0   0   0   0   0   0   0   0   0   0   0   7   0   0   0   0   0  10 97 96 95 93 91 89 87 86 84 81 
   1   0   0   0   0   0   0   0   0   0   0   0   0   0   0   0   0   0   0   0   0   0   6   0   0   0   0   0   0   0   0   8 97 94 88 86 83 82 81 68 
   1   0   0   0   0   0   0   0   0   0   0   0   0   0   0   0   0   0   0   0   0   0   0   0   0   5   8   0   0   0   0   7 93 86 83 81 79 75 63 
   2   0   0   0   0   0   0   0   0   0   0   0  10   0   0   0   0   0   0   4   0   0   0   0   0  10   7   0   8   0   0   8 99 94 92 90 88 83 81 77 
  10   0   0   0   7   0   4   9   0   0   0   0   0   8   0   0   0   0   0   0   7   0   0   0   6   0  10   0   0   0   0   6 101 92 91 84 74 62 
   8   0   0   0   0   0   0   5   0   0   0   7   0   0   5   0   0   0   5   0   0   0   0   0   0   0   4   0   5   0   0   5 97 87 86 67 62 
   1   7   0   0   0   0   0   0   0   0   0   8   0   0   0   0   0   0   0   0   5   0   0   0   0   4   0   0   0   0   0   6 94 85 84 83 76 74 
   3   0   0   0   0   0   0   0   0   0   0   0   0   0   0   0   6   0   0   0   0   0   0   0   0   0   0   0   0   0   0   5 84 83 81 75 69 
   1   5   0   0   0   0   0   0   0   0   0   0   0   0   0   0   0   0   0   0   0   0   0   0   0   0   4   6   0   0   0   6 101 93 87 83 81 79 
   7   0   0   0   0   0   0   0   0   0   0   0   0   0   0   0   0   0   0   0   0   0   5   0   8   0   0   0   0   0   0   5 95 84 82 81 69 
   8   0   0   0   0   3   0   0   0   0   0   0   0   0   0   0   0   4   0   5   0   0   0   0   0   0   0   0   0   0   0   5 99 86 85 82 67 
   6   0   0   0   0   0   0   0   0   0   6   0   0   0   0   9   0   8   0   2   0   0   0   0   0   0   0   0   0   0   0   5 93 92 85 84 70 
   6   7   0   0   0   0   0   0   0   0   6   0   0   0   0   0   0   0   0   0   0   0  10   0   0   0   0   8   0   0   0   6 100 89 88 87 86 81 
   8   0   0   0   0   8   0   0   0   0   4   4   7   0   0   0  10  10   0   0   0   0   0   0   0   0   0   0   6   0   0   6 100 98 86 85 82 81 
   6   0   0   0  10   7   5   0   0   0   0   0   0   0   0   7   6   0   0   0   0   0   0   0   0   0   7   0   0   9   0   5 88 87 84 83 74 
   5   0   0   5   0   0   0   5   0   0   0   0   0   0   0   0   0   0   0   0   3   0   0   0   0   0   0   0   0   0   0   4 85 82 74 67 
   6   0   0   0   4   8   8   0   0   0   8   0   0   8   0  10   0   0   0   0   0   0   8   0   0   0   0   6   0   0   0   5 93 88 86 82 81 
   4   0   0   0   7   0   0   0   0   0   0   0   0   0   0   0   0   0   6   0   0   0   0   0   0   0   0   0   8   0   0   5 99 91 83 82 81 
   3  10   0   0   0   0   0   0   0   0   0   5   0   0   0   0   0   0   5   5   0   8   0   0   6   0   0   0   0   0   0   4 91 87 83 81 
   8   0   0   6   0   0   0   0   0   0   7   0   0   0   0   0   0   0   0   0   0   0   0   0   0   0   8   0   0   0   0   3 85 82 81 
   4   0   0   0   0   0   0   0   0   0   0   0   0   0   0   0   0   0  10   0   0   0   0   0   0   0   0   0   0   0   0   3 88 84 82 
   3   0   6   0   0   0   0   0   0   0   0   0   0   0   0   0   0   0   0   0   6   0   7   0   7   0   0   0   4   0   0   3 92 89 82 
   8   0   0   0   0   0   0   0   7   5   4   0   0   0   0   0   3   0   0   8   0   0   0   0   0   0   0   0   0   0   0   3 96 84 81 
   5   0   0   0   0   0   5   0   0   0   0   0   0   7   7   7   0   0   0   8   7   0   0   5   0   0   0   0   0   0   0   3 89 86 82 
  10   0   0   0   0   0   0   0   0   0   0   0   0   0   0   5   0   0   0   0   0   0   0   0   0   0   0   0   0   0   0   2 83 81 
   5   0   0   0   0   0   0   0   6   0   0   0   0   0   0   0   0   0   5   0   0   0   6   0   0   0   0   0   0   0   0   2 85 84 
  10   0   0   0   0   6   0   0   0   0   0   0   0   0   0   0   0   0   0   0   0   0   0   0   0   0   0   0   0   0   0   2 89 87 
   6   0   0   0   8   0   0   0   0   0   0   7   0   0   0   4   0   3   0   0   0   0   5   0   0   0   0   0   0   0   0   2 86 81 
   3   0   0   0   0   0   0   0   0   0   0   0   0   0   0   6   0   0   0   0   0   0   0   8   5   7   9   0   0  10   0   2 83 81 
   9   0   0   0   0   0   0   0   0   0   0   0   0   0   0   0   0   0   0   0   0   0   0   0   0   0   0   0   0   0   0   2 85 81 
   1   0   0   0   0   0   0   0   0   0   5   0   0   0   0   0   0   0   8   0   0   0   7   0   0   0   0   0   0   0   6   2 85 82 
   6   0   9   0   0   0   0   0   0   0   0   0   0   0   0   0   7   0   0   0   0   0   0   0   4   0   0   0   0   0   0   1 81 
   1   0   0   0   0   0   0   0   0   5   0   0   0   0   0   0  10   0   0   0   0   6   0   0   0   0   0   0   0   0   0   1 82 
   3   5   0   0   0   8   0   0   0   0   8   0   0   7   0   4   0   0   0  10   0   0   0   0   0   6   0   0   0   0   0   1 82 
   5   0   0   0   0   0   0   0   0   8   3   5   0   0   0   0   6   0   8   0   5   6   0  10   0   8   0   0   0   0   0   1 84 
   1   0   0   0   0   0   0   0   6   0   0   0   0   0   0   0  10   0   0   0   0   6   0   4   0   0   9   0   0   0   0   1 85 
   2   0   0   0   0   0   0   0   9   6   0   2   0   0   0   0   0   0   0   0   0   0   0   0   0   0   7   0   0   0   0   1 82 
   5   0   0   0   0   0   0   0   0   0  10   0   0   0   0   0   0   9   0   0   0   0   0   0   0   0   0   0   0   6   0   1 90 
   5   0   0   0   4   8   0   0   3   0   0   0   0   0   4   7   0   0   0   0   0  10  10   0   0   0   0   0   0   0   0   1 102
   4   6   0   0   8   5   0   0   0   0   0   0   0   4   0   7   0   0   0   0   0   0   0   0   0   7   4   0   0   0   0   1 102
   8   0   0   0   5   0   0   0   0   0   0   0   0   6   0   0   0   7   0   0   0   0   0   0   0   0   5   0   0   0   3   1 102
   9   0   0   0   0   0   0   0   0   0   0   0   0   0   0   0   0   0   0   0   0   0   0   0   0   0   0   6   0   5   0   1 102
   1   0   0   0   7   0   0   0   0   0   0   0   0   0   0   0   6   7   0   0   0   0   0   8   0   0   0   7   0   0   0   1 102
   2   0   0   0   0   6   0   9   0   0   0   0   0   0   0   0   6   0   0   6   0   0   0   0   0   0   0   0   0   0   0   1 102
   8   0   0   0   0   0   0   0   0   0   0   0   0   0   0   0   0   0   3   7   0   0   8   0   0   0   0   0   0   0   0   1 102
   7   0   0   0   0   0   0   0   4   0   0   0   0   0   0   6   0   0   0   0   0   0   5   0   0   0   0   0   0   0   0   1 102
   5   0   0   0   0   0   6   0   8   0   0   0   0   0   0   7   0   0   0   0   0   0   6   0   0   0   0   0   0   0   0   1 102
   2   3   0   0   0   0   9   0   0   0   0   0   0   0   0   0   5   0   0   0   8   0   0   0   0   0   0   0   0   5   0   1 102
  10   0   0   0   0  10   0   0   0   0   0   0   0   0   0   6   0   0   0   0   6   0   0   0   0   0   0   0   0   0   0   1 102
   5   0   0   0   0   0   0   0   0   9   0   0   0   5   0   0   0   0   0   0   0   0   0   0   0  10   0   0   0   0   0   1 102
   7   0   0   0   0   0   0   0   0   0   0   0   4   0   0   0   0   0   0   0   0   9   0   0   0   7   0   0   0   0   0   1 102
   7   0   6   0   0   0   6   0   0   0   0   0   0   0   0   0   0   0   0   0   0   0   0   0   7   0   0   0   0   0   0   1 102
   7   0   0   0   0   0   0   0   0   0   0   0   0   0   0   5   0   0   0   0   0   0   0   0   0   0   0   0   0   0   0   1 102
   6   0   0   0   0   0   0   6   0   0   0   6   0   0   0   0   7   0   0   0   0   0   0   0   0   0   0   0   0   0   0   1 102
   5   0   9   0   0   0   0   0   0   0   0   0   4   0   0   0   2   0   0   0   0   0   0   0  10   0   5   0   0   0   0   1 102
   7   0   0   9   0   7   0   0   0   3   4   0   0   0   0   0   0   0   4   6   0   0   0   0   0   0   0   0   0   7   0   1 102
   8   0   0   0   0   0   0   0   0   0   0   7   0   0   0   0   0   0   0   0   0   5   0   0   0   6   0   4   0   0   0   1 102
   6   0   5   0   0   0   0   0   0   0   5   0   0   6   0   0   0   0   0   0   0   0   0   0   6   0   0   0   0   0   4   1 102
   2   0   0   0   0   5   0   0   0   0   0   0   0   5   5   0   0   0   0   0   0   0   0   0   7   0   0   0   0   0   0   1 102
   0   0   0   0   0   0   0   0   0   0   0   0   0   0   0   0   0   0   0   0   0   0   0   0   0   0   0   0   0   0   0   0 
